Route #1: 6 33 16
Route #2: 3 44 32
Route #3: 50 18 24 49
Route #4: 23 43 41 42 1
Route #5: 22 28 21
Route #6: 47 36 20 37
Route #7: 5 48 30
Route #8: 2 4
Route #9: 45 29 15 54 13
Route #10: 27 52 34
Route #11: 46 8 7 35
Route #12: 19 14 53
Route #13: 11 38
Route #14: 10 31 25
Route #15: 9 39 12
Route #16: 40 51 17
Route #17: 26
Cost 986